(set-option :interactive-mode true)
(declare-const x Int)
(declare-const y Int)
(declare-const z Int)
(push)
(assert (= (+ x y) 10))
(assert (= (+ x (* 2 y)) 20))
(get-assertions)
(check-sat)
(pop) ; remove the two assertions
(push) 
(declare-const a Real)
(declare-const b Real)
(assert (= (+ (* 3 a) b) 10))
(assert (= (+ (* 2 a) (* 2 b)) 21))
(check-sat)
(get-model)
(declare-const p Bool)
(pop)
;(assert p) ; error, since declaration of p was removed from the stack
